Examples/production.sol
# Objective value = 70500000
Regular_1 7000
Regular_2 10000
Regular_3 10000
Regular_4 8000
Overtime_1 0
Overtime_2 0
Overtime_3 0
Overtime_4 0
Inventory_1 5000
Inventory_2 0
Inventory_3 0
